p cnf 63 235
1 2 -3 0
-1 -2 -3 0
1 -2 3 0
-1 2 3 0
-5 -1 -6 0
5 1 -6 0
-5 1 6 0
5 -1 6 0
5 7 -8 0
-5 -7 -8 0
5 -7 8 0
-5 7 8 0
-9 -8 0
-9 5 0
8 -5 9 0
10 6 0
10 -9 0
-6 9 -10 0
-11 -12 0
11 -12 0
2 13 -14 0
-2 -13 -14 0
2 -13 14 0
-2 13 14 0
15 7 0
15 14 0
-7 -14 -15 0
-12 15 -16 0
12 -15 -16 0
-12 -15 16 0
12 15 16 0
17 10 0
17 -16 0
-10 16 -17 0
18 4 0
18 -17 0
-4 17 -18 0
19 2 0
19 1 0
-2 -1 -19 0
-19 11 -20 0
19 -11 -20 0
-19 -11 20 0
19 11 20 0
-21 20 0
-21 10 0
-20 -10 21 0
-22 -10 0
-22 21 0
10 -21 22 0
-23 -18 0
-23 -22 0
18 22 23 0
24 -12 0
24 -19 0
12 19 -24 0
-11 -24 -25 0
11 24 -25 0
-11 24 25 0
11 -24 25 0
-11 15 -26 0
11 -15 -26 0
-11 -15 26 0
11 15 26 0
-27 -25 0
-27 26 0
25 -26 27 0
-23 -27 -28 0
23 27 -28 0
-23 27 28 0
23 -27 28 0
3 28 -29 0
-3 -28 -29 0
3 -28 29 0
-3 28 29 0
32 12 0
32 31 0
-12 -31 -32 0
30 -32 -33 0
-30 32 -33 0
30 32 33 0
-30 -32 33 0
-34 33 0
-34 7 0
-33 -7 34 0
1 15 -35 0
-1 -15 -35 0
1 -15 35 0
-1 15 35 0
-36 7 0
-36 -1 0
-7 1 36 0
-36 -4 -37 0
36 4 -37 0
-36 4 37 0
36 -4 37 0
38 10 0
38 37 0
-10 -37 -38 0
-35 38 -39 0
35 -38 -39 0
-35 -38 39 0
35 38 39 0
-40 13 0
-40 6 0
-13 -6 40 0
39 -40 -41 0
-39 40 -41 0
39 40 41 0
-39 -40 41 0
-42 -34 0
-42 41 0
34 -41 42 0
43 19 0
43 4 0
-19 -4 -43 0
36 44 -45 0
-36 -44 -45 0
36 -44 45 0
-36 44 45 0
-7 -36 -46 0
7 36 -46 0
-7 36 46 0
7 -36 46 0
47 45 0
47 46 0
-45 -46 -47 0
-48 -43 0
-48 -47 0
43 47 48 0
42 -48 -49 0
-42 48 -49 0
42 48 49 0
-42 -48 49 0
-50 15 0
-50 -11 0
-15 11 50 0
-37 50 -51 0
37 -50 -51 0
-37 -50 51 0
37 50 51 0
52 2 0
52 5 0
-2 -5 -52 0
-53 51 0
-53 -52 0
-51 52 53 0
54 2 0
54 11 0
-2 -11 -54 0
55 -5 0
55 54 0
5 -54 -55 0
-56 -55 0
-56 19 0
55 -19 56 0
-57 -19 0
-57 -56 0
19 56 57 0
31 57 -58 0
-31 -57 -58 0
31 -57 58 0
-31 57 58 0
-32 4 -59 0
32 -4 -59 0
-32 -4 59 0
32 4 59 0
60 58 0
60 59 0
-58 -59 -60 0
61 53 0
61 60 0
-53 -60 -61 0
-49 61 -62 0
49 -61 -62 0
-49 -61 62 0
49 61 62 0
-63 -29 0
-63 62 0
29 -62 63 0
-7 23 -45 25 0
-20 50 -37 -26 2 0
-48 13 -49 -57 -17 0
13 26 0
3 9 0
55 -32 -26 49 50 28 0
14 51 43 -1 0
15 -50 0
56 -30 -63 -19 -50 -27 0
-29 47 -57 -54 14 0
-52 -45 49 42 -36 0
-32 -23 -41 -4 0
-9 -31 -12 -14 -49 0
-46 7 34 33 61 0
-1 -13 34 -63 0
-7 12 46 -6 22 0
-24 4 42 -18 0
-1 -33 -2 -19 -4 23 0
-19 11 34 -52 0
-63 39 28 3 0
35 12 -53 13 -52 0
12 -17 -36 0
30 29 -59 0
-8 -31 0
41 16 1 -14 0
-7 -50 53 63 21 0
-16 36 -56 -17 0
20 58 16 59 -57 0
8 18 -44 -55 49 -16 0
8 -14 0
-25 -17 2 0
28 2 21 -56 49 0
-10 -46 -37 -58 0
18 -16 -29 0
-43 -22 20 -38 0
-52 -55 -23 -31 0
22 4 -12 55 -1 -23 0
-15 -63 -23 37 -3 -28 0
40 -48 0
-59 13 -12 45 -15 0
63 20 -49 12 -31 0
62 -50 -30 0
18 38 -16 0
60 -35 0
-9 34 4 0
-36 -40 52 7 42 0
-25 60 28 0
-10 44 -28 0
-21 -27 29 0
-50 -9 -6 -48 -27 0
3 39 -23 2 0
-37 4 0
-26 53 0
-30 10 -34 0
63 0
